(define-fun min ((x Real) (y Real)) Real
  (ite (< x y) x y))
(define-fun max ((x Real) (y Real)) Real
  (ite (< x y) y x))
	(declare-fun p710 () Real)
	(declare-fun p711 () Real)
	(declare-fun p712 () Real)
	(declare-fun p713 () Real)
	(declare-fun p766 () Real)
	(declare-fun p767 () Real)
	(declare-fun p924 () Real)
	(declare-fun p925 () Real)
	(declare-fun p1186 () Real)
	(declare-fun p1187 () Real)
	(declare-fun p1188 () Real)
	(declare-fun p1189 () Real)
	(declare-fun p1320 () Real)
	(declare-fun p1321 () Real)
	(declare-fun p1374 () Real)
	(declare-fun p1375 () Real)
	(declare-fun p1662 () Real)
	(declare-fun p1663 () Real)
	(declare-fun p1794 () Real)
	(declare-fun p1795 () Real)
	(declare-fun p1978 () Real)
	(declare-fun p1979 () Real)
	(assert (<= 0 p710 ))
	(assert (<= p710 1 ))
	(assert (<= 0 p711 ))
	(assert (<= p711 1 ))
	(assert (<= 0 p712 ))
	(assert (<= p712 1 ))
	(assert (<= 0 p713 ))
	(assert (<= p713 1 ))
	(assert (<= 0 p766 ))
	(assert (<= p766 1 ))
	(assert (<= 0 p767 ))
	(assert (<= p767 1 ))
	(assert (<= 0 p924 ))
	(assert (<= p924 1 ))
	(assert (<= 0 p925 ))
	(assert (<= p925 1 ))
	(assert (<= 0 p1186 ))
	(assert (<= p1186 1 ))
	(assert (<= 0 p1187 ))
	(assert (<= p1187 1 ))
	(assert (<= 0 p1188 ))
	(assert (<= p1188 1 ))
	(assert (<= 0 p1189 ))
	(assert (<= p1189 1 ))
	(assert (<= 0 p1320 ))
	(assert (<= p1320 1 ))
	(assert (<= 0 p1321 ))
	(assert (<= p1321 1 ))
	(assert (<= 0 p1374 ))
	(assert (<= p1374 1 ))
	(assert (<= 0 p1375 ))
	(assert (<= p1375 1 ))
	(assert (<= 0 p1662 ))
	(assert (<= p1662 1 ))
	(assert (<= 0 p1663 ))
	(assert (<= p1663 1 ))
	(assert (<= 0 p1794 ))
	(assert (<= p1794 1 ))
	(assert (<= 0 p1795 ))
	(assert (<= p1795 1 ))
	(assert (<= 0 p1978 ))
	(assert (<= p1978 1 ))
	(assert (<= 0 p1979 ))
	(assert (<= p1979 1 ))
	(assert (<= (/  2 3) (min p710 p711)))
	(assert (<= p710 (+ (* (/  1 3) p712) (* (- 1 (/  1 3)) p713))))
	(assert (<= p712 (min p766 p767)))
	(assert (= p766 0))
	(assert (= p767 0))
	(assert (<= p713 (+ (* (/  1 2) p924) (* (- 1 (/  1 2)) p925))))
	(assert (<= p924 1))
	(assert (<= p925 1))
	(assert (<= p711 (min p1186 p1187)))
	(assert (<= p1186 (+ (* (/  1 3) p1188) (* (- 1 (/  1 3)) p1189))))
	(assert (<= p1188 1))
	(assert (<= p1189 (+ (* (/  1 2) p1320) (* (- 1 (/  1 2)) p1321))))
	(assert (<= p1320 (min p1374 p1375)))
	(assert (= p1374 0))
	(assert (= p1375 0))
	(assert (<= p1321 1))
	(assert (<= p1187 (+ (* (/  1 3) p1662) (* (- 1 (/  1 3)) p1663))))
	(assert (<= p1662 1))
	(assert (<= p1663 (+ (* (/  1 2) p1794) (* (- 1 (/  1 2)) p1795))))
	(assert (<= p1794 1))
	(assert (<= p1795 (min p1978 p1979)))
	(assert (= p1978 0))
	(assert (= p1979 0))
	(check-sat)